<number of tasks>
70

<cycle time>
364

<task times>
1 17
2 66
3 54
4 52
5 6
6 88
7 21
8 128
9 68
10 70
11 85
12 21
13 134
14 135
15 94
16 90
17 50
18 143
19 19
20 54
21 50
22 40
23 73
24 12
25 152
26 42
27 45
28 74
29 26
30 11
31 31
32 50
33 102
34 46
35 35
36 40
37 2
38 1
39 3
40 13
41 16
42 25
43 21
44 43
45 30
46 83
47 89
48 56
49 59
50 43
51 11
52 26
53 44
54 121
55 38
56 68
57 22
58 7
59 16
60 32
61 25
62 27
63 156
64 28
65 15
66 26
67 18
68 72
69 23
70 27

<precedence relations>
1,2
1,41
1,69
1,70
2,3
3,4
3,68
4,6
4,7
5,6
5,24
5,30
6,8
7,8
8,12
9,10
10,11
11,12
12,13
12,14
13,23
14,23
15,16
16,17
16,18
17,19
18,19
19,20
19,22
19,57
20,21
21,23
22,23
23,25
23,31
23,33
24,25
25,26
25,27
25,28
25,29
26,35
27,35
28,35
29,35
30,31
31,32
32,35
33,34
34,35
35,36
35,44
35,48
35,51
35,53
35,56
35,60
35,61
35,62
36,37
37,38
38,39
39,40
40,42
41,42
42,43
43,50
44,45
45,46
46,47
47,50
48,49
49,50
51,52
52,54
53,54
54,55
57,58
58,59
59,60
61,65
62,63
63,64
64,65
64,66
64,67

<setup times forward>
1,10:15
1,11:15
1,16:15
1,17:5
1,18:5
1,19:5
1,20:5
1,21:4
1,22:5
1,24:4
1,30:4
1,57:13
1,58:13
1,59:13
1,69:8
1,70:8
2,10:15
2,11:15
2,16:15
2,17:5
2,18:5
2,19:5
2,20:5
2,21:4
2,22:5
2,24:4
2,30:4
2,57:13
2,58:13
2,59:13
2,69:8
2,70:8
3,10:15
3,11:15
3,16:15
3,17:5
3,18:5
3,19:5
3,20:5
3,21:4
3,22:5
3,24:4
3,30:4
3,57:13
3,58:13
3,59:13
3,68:13
3,69:8
3,70:8
4,6:15
4,7:15
4,10:15
4,11:15
4,16:15
4,17:5
4,18:5
4,19:5
4,20:5
4,21:4
4,22:5
4,24:4
4,30:4
4,57:13
4,58:13
4,59:13
4,68:13
4,69:8
4,70:8
5,6:15
5,7:15
5,10:15
5,11:15
5,16:15
5,17:5
5,18:5
5,19:5
5,20:5
5,21:4
5,22:5
5,24:4
5,30:4
5,57:13
5,58:13
5,59:13
5,68:13
5,69:8
5,70:8
6,8:20
6,9:15
6,15:15
6,17:20
6,18:20
6,19:20
6,20:10
6,21:11
6,22:10
6,24:11
6,30:11
6,41:15
6,57:28
6,58:28
6,59:28
6,68:28
6,69:7
6,70:7
7,5:15
7,8:20
7,9:15
7,15:15
7,17:20
7,18:20
7,19:20
7,20:10
7,21:11
7,22:10
7,24:11
7,30:11
7,41:15
7,57:28
7,58:28
7,59:28
7,68:28
7,69:7
7,70:7
8,9:5
8,10:20
8,11:20
8,15:5
8,16:20
8,20:10
8,21:9
8,22:10
8,24:9
8,30:9
8,41:5
8,57:8
8,58:8
8,59:8
8,68:8
8,69:13
8,70:13
9,6:15
9,7:15
9,8:5
9,10:15
9,16:15
9,17:5
9,18:5
9,19:5
9,20:5
9,21:4
9,22:5
9,24:4
9,30:4
9,57:13
9,58:13
9,59:13
9,68:13
9,69:8
9,70:8
10,1:15
10,2:15
10,3:15
10,4:15
10,5:15
10,8:20
10,15:15
10,17:20
10,18:20
10,19:20
10,20:10
10,21:11
10,22:10
10,24:11
10,30:11
10,41:15
10,57:28
10,58:28
10,59:28
10,68:28
10,69:7
10,70:7
11,1:15
11,2:15
11,3:15
11,4:15
11,5:15
11,8:20
11,12:20
11,15:15
11,17:20
11,18:20
11,19:20
11,20:10
11,21:11
11,22:10
11,24:11
11,30:11
11,41:15
11,57:28
11,58:28
11,59:28
11,68:28
11,69:7
11,70:7
12,13:10
12,14:10
12,15:5
12,16:20
12,20:10
12,21:9
12,22:10
12,24:9
12,30:9
12,41:5
12,57:8
12,58:8
12,59:8
12,68:8
12,69:13
12,70:13
13,15:5
13,16:10
13,17:10
13,18:10
13,19:10
13,21:1
13,23:1
13,24:1
13,30:1
13,41:5
13,57:18
13,58:18
13,59:18
13,68:18
13,69:3
13,70:3
14,15:5
14,16:10
14,17:10
14,18:10
14,19:10
14,21:1
14,23:1
14,24:1
14,30:1
14,41:5
14,57:18
14,58:18
14,59:18
14,68:18
14,69:3
14,70:3
15,6:15
15,7:15
15,8:5
15,10:15
15,11:15
15,12:5
15,13:5
15,14:5
15,16:15
15,24:4
15,30:4
15,68:13
15,69:8
15,70:8
16,1:15
16,2:15
16,3:15
16,4:15
16,5:15
16,8:20
16,9:15
16,12:20
16,13:10
16,14:10
16,17:20
16,18:20
16,24:11
16,30:11
16,41:15
16,68:28
16,69:7
16,70:7
17,1:5
17,2:5
17,3:5
17,4:5
17,5:5
17,6:20
17,7:20
17,9:5
17,10:20
17,11:20
17,13:10
17,14:10
17,24:9
17,30:9
17,41:5
17,68:8
17,69:13
17,70:13
18,1:5
18,2:5
18,3:5
18,4:5
18,5:5
18,6:20
18,7:20
18,9:5
18,10:20
18,11:20
18,13:10
18,14:10
18,24:9
18,30:9
18,41:5
18,68:8
18,69:13
18,70:13
19,1:5
19,2:5
19,3:5
19,4:5
19,5:5
19,6:20
19,7:20
19,9:5
19,10:20
19,11:20
19,13:10
19,14:10
19,20:10
19,22:10
19,24:9
19,30:9
19,41:5
19,57:8
19,68:8
19,69:13
19,70:13
20,1:5
20,2:5
20,3:5
20,4:5
20,5:5
20,6:10
20,7:10
20,8:10
20,9:5
20,10:10
20,11:10
20,12:10
20,21:1
20,24:1
20,30:1
20,41:5
20,57:18
20,58:18
20,59:18
20,68:18
20,69:3
20,70:3
21,1:4
21,2:4
21,3:4
21,4:4
21,5:4
21,6:11
21,7:11
21,8:9
21,9:4
21,10:11
21,11:11
21,12:9
21,13:1
21,14:1
21,22:1
21,41:4
21,57:17
21,58:17
21,59:17
21,68:17
21,69:4
21,70:4
22,1:5
22,2:5
22,3:5
22,4:5
22,5:5
22,6:10
22,7:10
22,8:10
22,9:5
22,10:10
22,11:10
22,12:10
22,21:1
22,23:1
22,24:1
22,30:1
22,41:5
22,57:18
22,58:18
22,59:18
22,68:18
22,69:3
22,70:3
23,33:12
23,41:4
23,57:17
23,58:17
23,59:17
23,68:17
23,69:4
23,70:4
24,1:4
24,2:4
24,3:4
24,4:4
24,6:11
24,7:11
24,8:9
24,9:4
24,10:11
24,11:11
24,12:9
24,13:1
24,14:1
24,15:4
24,16:11
24,17:9
24,18:9
24,19:9
24,20:1
24,22:1
24,32:12
24,33:12
24,34:12
24,41:4
24,57:17
24,58:17
24,59:17
24,68:17
24,69:4
24,70:4
25,26:12
25,27:12
25,28:12
25,32:12
25,33:12
25,34:12
25,41:4
25,57:17
25,58:17
25,59:17
25,68:17
25,69:4
25,70:4
26,29:12
26,30:12
26,31:12
26,35:8
26,41:8
26,57:5
26,58:5
26,59:5
26,68:5
26,69:16
26,70:16
27,29:12
27,30:12
27,31:12
27,35:8
27,41:8
27,57:5
27,58:5
27,59:5
27,68:5
27,69:16
27,70:16
28,29:12
28,30:12
28,31:12
28,35:8
28,41:8
28,57:5
28,58:5
28,59:5
28,68:5
28,69:16
28,70:16
29,26:12
29,27:12
29,28:12
29,32:12
29,33:12
29,34:12
29,35:4
29,41:4
29,57:17
29,58:17
29,59:17
29,68:17
29,69:4
29,70:4
30,1:4
30,2:4
30,3:4
30,4:4
30,6:11
30,7:11
30,8:9
30,9:4
30,10:11
30,11:11
30,12:9
30,13:1
30,14:1
30,15:4
30,16:11
30,17:9
30,18:9
30,19:9
30,20:1
30,22:1
30,26:12
30,27:12
30,28:12
30,33:12
30,34:12
30,41:4
30,57:17
30,58:17
30,59:17
30,68:17
30,69:4
30,70:4
31,26:12
31,27:12
31,28:12
31,32:12
31,33:12
31,34:12
31,41:4
31,57:17
31,58:17
31,59:17
31,68:17
31,69:4
31,70:4
32,24:12
32,25:12
32,29:12
32,35:8
32,41:8
32,57:5
32,58:5
32,59:5
32,68:5
32,69:16
32,70:16
33,24:12
33,25:12
33,29:12
33,30:12
33,31:12
33,41:8
33,57:5
33,58:5
33,59:5
33,68:5
33,69:16
33,70:16
34,24:12
34,25:12
34,29:12
34,30:12
34,31:12
34,35:8
34,41:8
34,57:5
34,58:5
34,59:5
34,68:5
34,69:16
34,70:16
35,36:13
35,48:8
35,56:13
35,57:13
35,58:13
35,59:13
35,60:8
35,61:8
35,68:13
35,69:8
35,70:8
36,41:13
36,44:13
36,45:13
36,47:8
36,48:21
36,49:8
36,51:13
36,52:21
36,53:13
36,54:8
36,55:8
36,60:21
36,61:21
36,62:13
36,63:13
36,65:21
36,66:21
36,67:21
36,69:21
36,70:21
37,41:13
37,44:13
37,45:13
37,47:8
37,48:21
37,49:8
37,51:13
37,52:21
37,53:13
37,54:8
37,55:8
37,60:21
37,61:21
37,62:13
37,63:13
37,65:21
37,66:21
37,67:21
37,69:21
37,70:21
38,41:13
38,44:13
38,45:13
38,47:8
38,48:21
38,49:8
38,51:13
38,52:21
38,53:13
38,54:8
38,55:8
38,60:21
38,61:21
38,62:13
38,63:13
38,65:21
38,66:21
38,67:21
38,69:21
38,70:21
39,41:13
39,44:13
39,45:13
39,47:8
39,48:21
39,49:8
39,51:13
39,52:21
39,53:13
39,54:8
39,55:8
39,60:21
39,61:21
39,62:13
39,63:13
39,65:21
39,66:21
39,67:21
39,69:21
39,70:21
40,41:13
40,42:21
40,44:13
40,45:13
40,47:8
40,48:21
40,49:8
40,51:13
40,52:21
40,53:13
40,54:8
40,55:8
40,60:21
40,61:21
40,62:13
40,63:13
40,65:21
40,66:21
40,67:21
40,69:21
40,70:21
41,6:15
41,7:15
41,8:5
41,10:15
41,11:15
41,12:5
41,13:5
41,14:5
41,16:15
41,17:5
41,18:5
41,19:5
41,20:5
41,21:4
41,22:5
41,23:4
41,24:4
41,25:4
41,26:8
41,27:8
41,28:8
41,29:4
41,30:4
41,31:4
41,32:8
41,33:8
41,34:8
41,36:13
41,37:13
41,38:13
41,39:13
41,40:13
41,42:8
41,46:13
41,47:5
41,48:8
41,49:5
41,52:8
41,54:5
41,55:5
41,56:13
41,57:13
41,58:13
41,59:13
41,60:8
41,61:8
41,64:13
41,65:8
41,66:8
41,67:8
41,68:13
41,69:8
41,70:8
42,44:8
42,45:8
42,46:21
42,47:13
42,49:13
42,51:8
42,53:8
42,54:13
42,55:13
42,56:21
42,57:21
42,58:21
42,59:21
42,62:8
42,63:8
42,64:21
42,68:21
43,44:8
43,45:8
43,46:21
43,47:13
43,49:13
43,50:13
43,51:8
43,53:8
43,54:13
43,55:13
43,56:21
43,57:21
43,58:21
43,59:21
43,62:8
43,63:8
43,64:21
43,68:21
44,36:13
44,37:13
44,38:13
44,39:13
44,40:13
44,42:8
44,43:8
44,48:8
44,49:5
44,52:8
44,54:5
44,55:5
44,56:13
44,57:13
44,58:13
44,59:13
44,60:8
44,61:8
44,64:13
44,65:8
44,66:8
44,67:8
44,68:13
44,69:8
44,70:8
45,36:13
45,37:13
45,38:13
45,39:13
45,40:13
45,42:8
45,43:8
45,46:13
45,48:8
45,49:5
45,52:8
45,54:5
45,55:5
45,56:13
45,57:13
45,58:13
45,59:13
45,60:8
45,61:8
45,64:13
45,65:8
45,66:8
45,67:8
45,68:13
45,69:8
45,70:8
46,41:13
46,42:21
46,43:21
46,47:8
46,48:21
46,49:8
46,51:13
46,52:21
46,53:13
46,54:8
46,55:8
46,60:21
46,61:21
46,62:13
46,63:13
46,65:21
46,66:21
46,67:21
46,69:21
46,70:21
47,36:8
47,37:8
47,38:8
47,39:8
47,40:8
47,41:5
47,42:13
47,43:13
47,48:13
47,51:5
47,52:13
47,53:5
47,56:8
47,57:8
47,58:8
47,59:8
47,60:13
47,61:13
47,62:5
47,63:5
47,64:8
47,65:13
47,66:13
47,67:13
47,68:8
47,69:13
47,70:13
48,36:21
48,37:21
48,38:21
48,39:21
48,40:21
48,41:8
48,44:8
48,45:8
48,46:21
48,47:13
48,49:13
48,51:8
48,53:8
48,54:13
48,55:13
48,56:21
48,57:21
48,58:21
48,59:21
48,62:8
48,63:8
48,64:21
48,68:21
49,36:8
49,37:8
49,38:8
49,39:8
49,40:8
49,41:5
49,42:13
49,43:13
49,44:5
49,45:5
49,46:8
49,51:5
49,52:13
49,53:5
49,56:8
49,57:8
49,58:8
49,59:8
49,60:13
49,61:13
49,62:5
49,63:5
49,64:8
49,65:13
49,66:13
49,67:13
49,68:8
49,69:13
49,70:13
50,51:5
50,52:13
50,53:5
50,56:8
50,57:8
50,58:8
50,59:8
50,60:13
50,61:13
50,62:5
50,63:5
50,64:8
50,65:13
50,66:13
50,67:13
50,68:8
50,69:13
50,70:13
51,36:13
51,37:13
51,38:13
51,39:13
51,40:13
51,42:8
51,43:8
51,46:13
51,47:5
51,48:8
51,49:5
51,50:5
51,52:8
51,56:13
51,57:13
51,58:13
51,59:13
51,60:8
51,61:8
51,64:13
51,65:8
51,66:8
51,67:8
51,68:13
51,69:8
51,70:8
52,36:21
52,37:21
52,38:21
52,39:21
52,40:21
52,41:8
52,44:8
52,45:8
52,46:21
52,47:13
52,49:13
52,50:13
52,53:8
52,54:13
52,56:21
52,57:21
52,58:21
52,59:21
52,62:8
52,63:8
52,64:21
52,68:21
53,36:13
53,37:13
53,38:13
53,39:13
53,40:13
53,42:8
53,43:8
53,46:13
53,47:5
53,48:8
53,49:5
53,50:5
53,52:8
53,54:5
53,56:13
53,57:13
53,58:13
53,59:13
53,60:8
53,61:8
53,64:13
53,65:8
53,66:8
53,67:8
53,68:13
53,69:8
53,70:8
54,36:8
54,37:8
54,38:8
54,39:8
54,40:8
54,41:5
54,42:13
54,43:13
54,44:5
54,45:5
54,46:8
54,48:13
54,56:8
54,57:8
54,58:8
54,59:8
54,60:13
54,61:13
54,62:5
54,63:5
54,64:8
54,65:13
54,66:13
54,67:13
54,68:8
54,69:13
54,70:13
55,36:8
55,37:8
55,38:8
55,39:8
55,40:8
55,41:5
55,42:13
55,43:13
55,44:5
55,45:5
55,46:8
55,48:13
55,56:8
55,57:8
55,58:8
55,59:8
55,60:13
55,61:13
55,62:5
55,63:5
55,64:8
55,65:13
55,66:13
55,67:13
55,68:8
55,69:13
55,70:13
56,41:13
56,42:21
56,43:21
56,44:13
56,45:13
56,47:8
56,48:21
56,49:8
56,50:8
56,51:13
56,52:21
56,53:13
56,54:8
56,55:8
56,60:21
56,61:21
56,62:13
56,63:13
56,65:21
56,66:21
56,67:21
56,69:21
56,70:21
57,1:13
57,2:13
57,3:13
57,4:13
57,5:13
57,6:28
57,7:28
57,8:8
57,9:13
57,10:28
57,11:28
57,12:8
57,13:18
57,14:18
57,20:18
57,21:17
57,22:18
57,23:17
57,24:17
57,25:17
57,26:5
57,27:5
57,28:5
57,29:17
57,30:17
57,31:17
57,32:5
57,33:5
57,34:5
57,35:13
57,41:13
57,42:21
57,43:21
57,44:13
57,45:13
57,47:8
57,48:21
57,49:8
57,50:8
57,51:13
57,52:21
57,53:13
57,54:8
57,55:8
57,61:21
57,62:13
57,63:13
57,65:21
57,66:21
57,67:21
57,69:21
57,70:21
58,1:13
58,2:13
58,3:13
58,4:13
58,5:13
58,6:28
58,7:28
58,8:8
58,9:13
58,10:28
58,11:28
58,12:8
58,13:18
58,14:18
58,20:18
58,21:17
58,22:18
58,23:17
58,24:17
58,25:17
58,26:5
58,27:5
58,28:5
58,29:17
58,30:17
58,31:17
58,32:5
58,33:5
58,34:5
58,35:13
58,41:13
58,42:21
58,43:21
58,44:13
58,45:13
58,47:8
58,48:21
58,49:8
58,50:8
58,51:13
58,52:21
58,53:13
58,54:8
58,55:8
58,61:21
58,62:13
58,63:13
58,65:21
58,66:21
58,67:21
58,69:21
58,70:21
59,1:13
59,2:13
59,3:13
59,4:13
59,5:13
59,6:28
59,7:28
59,8:8
59,9:13
59,10:28
59,11:28
59,12:8
59,13:18
59,14:18
59,20:18
59,21:17
59,22:18
59,23:17
59,24:17
59,25:17
59,26:5
59,27:5
59,28:5
59,29:17
59,30:17
59,31:17
59,32:5
59,33:5
59,34:5
59,35:13
59,41:13
59,42:21
59,43:21
59,44:13
59,45:13
59,47:8
59,48:21
59,49:8
59,50:8
59,51:13
59,52:21
59,53:13
59,54:8
59,55:8
59,60:21
59,61:21
59,62:13
59,63:13
59,65:21
59,66:21
59,67:21
59,69:21
59,70:21
60,36:21
60,37:21
60,38:21
60,39:21
60,40:21
60,41:8
60,44:8
60,45:8
60,46:21
60,47:13
60,49:13
60,50:13
60,51:8
60,53:8
60,54:13
60,55:13
60,56:21
60,62:8
60,63:8
60,64:21
60,68:21
61,36:21
61,37:21
61,38:21
61,39:21
61,40:21
61,41:8
61,44:8
61,45:8
61,46:21
61,47:13
61,49:13
61,50:13
61,51:8
61,53:8
61,54:13
61,55:13
61,56:21
61,57:21
61,58:21
61,59:21
61,62:8
61,63:8
61,64:21
61,68:21
62,36:13
62,37:13
62,38:13
62,39:13
62,40:13
62,42:8
62,43:8
62,46:13
62,47:5
62,48:8
62,49:5
62,50:5
62,52:8
62,54:5
62,55:5
62,56:13
62,57:13
62,58:13
62,59:13
62,60:8
62,61:8
62,68:13
62,69:8
62,70:8
63,36:13
63,37:13
63,38:13
63,39:13
63,40:13
63,42:8
63,43:8
63,46:13
63,47:5
63,48:8
63,49:5
63,50:5
63,52:8
63,54:5
63,55:5
63,56:13
63,57:13
63,58:13
63,59:13
63,60:8
63,61:8
63,64:13
63,68:13
63,69:8
63,70:8
64,41:13
64,42:21
64,43:21
64,44:13
64,45:13
64,47:8
64,48:21
64,49:8
64,50:8
64,51:13
64,52:21
64,53:13
64,54:8
64,55:8
64,60:21
64,61:21
64,65:21
64,66:21
64,67:21
64,69:21
64,70:21
65,36:21
65,37:21
65,38:21
65,39:21
65,40:21
65,41:8
65,44:8
65,45:8
65,46:21
65,47:13
65,49:13
65,50:13
65,51:8
65,53:8
65,54:13
65,55:13
65,56:21
65,57:21
65,58:21
65,59:21
65,68:21
66,36:21
66,37:21
66,38:21
66,39:21
66,40:21
66,41:8
66,44:8
66,45:8
66,46:21
66,47:13
66,49:13
66,50:13
66,51:8
66,53:8
66,54:13
66,55:13
66,56:21
66,57:21
66,58:21
66,59:21
66,68:21
67,36:21
67,37:21
67,38:21
67,39:21
67,40:21
67,41:8
67,44:8
67,45:8
67,46:21
67,47:13
67,49:13
67,50:13
67,51:8
67,53:8
67,54:13
67,55:13
67,56:21
67,57:21
67,58:21
67,59:21
67,68:21
68,4:13
68,5:13
68,6:28
68,7:28
68,8:8
68,9:13
68,10:28
68,11:28
68,12:8
68,13:18
68,14:18
68,15:13
68,16:28
68,17:8
68,18:8
68,19:8
68,20:18
68,21:17
68,22:18
68,23:17
68,24:17
68,25:17
68,26:5
68,27:5
68,28:5
68,29:17
68,30:17
68,31:17
68,32:5
68,33:5
68,34:5
68,35:13
68,41:13
68,42:21
68,43:21
68,44:13
68,45:13
68,47:8
68,48:21
68,49:8
68,50:8
68,51:13
68,52:21
68,53:13
68,54:8
68,55:8
68,60:21
68,61:21
68,62:13
68,63:13
68,65:21
68,66:21
68,67:21
68,69:21
68,70:21
69,2:8
69,3:8
69,4:8
69,5:8
69,6:7
69,7:7
69,8:13
69,9:8
69,10:7
69,11:7
69,12:13
69,13:3
69,14:3
69,15:8
69,16:7
69,17:13
69,18:13
69,19:13
69,20:3
69,21:4
69,22:3
69,23:4
69,24:4
69,25:4
69,26:16
69,27:16
69,28:16
69,29:4
69,30:4
69,31:4
69,32:16
69,33:16
69,34:16
69,35:8
69,36:21
69,37:21
69,38:21
69,39:21
69,40:21
69,41:8
69,44:8
69,45:8
69,46:21
69,47:13
69,49:13
69,50:13
69,51:8
69,53:8
69,54:13
69,55:13
69,56:21
69,57:21
69,58:21
69,59:21
69,62:8
69,63:8
69,64:21
69,68:21
70,2:8
70,3:8
70,4:8
70,5:8
70,6:7
70,7:7
70,8:13
70,9:8
70,10:7
70,11:7
70,12:13
70,13:3
70,14:3
70,15:8
70,16:7
70,17:13
70,18:13
70,19:13
70,20:3
70,21:4
70,22:3
70,23:4
70,24:4
70,25:4
70,26:16
70,27:16
70,28:16
70,29:4
70,30:4
70,31:4
70,32:16
70,33:16
70,34:16
70,35:8
70,36:21
70,37:21
70,38:21
70,39:21
70,40:21
70,41:8
70,44:8
70,45:8
70,46:21
70,47:13
70,49:13
70,50:13
70,51:8
70,53:8
70,54:13
70,55:13
70,56:21
70,57:21
70,58:21
70,59:21
70,62:8
70,63:8
70,64:21
70,68:21

<setup times backward>
1,1:1
1,5:1
1,9:1
1,15:1
1,17:6
1,18:6
1,19:6
1,57:14
1,58:14
1,59:14
2,1:1
2,2:1
2,5:1
2,9:1
2,15:1
2,17:6
2,18:6
2,19:6
2,41:1
2,57:14
2,58:14
2,59:14
3,1:1
3,2:1
3,3:1
3,5:1
3,9:1
3,15:1
3,17:6
3,18:6
3,19:6
3,41:1
3,57:14
3,58:14
3,59:14
4,1:1
4,2:1
4,3:1
4,4:1
4,5:1
4,9:1
4,15:1
4,17:6
4,18:6
4,19:6
4,41:1
4,57:14
4,58:14
4,59:14
4,68:14
5,1:1
5,2:1
5,3:1
5,4:1
5,5:1
5,9:1
5,15:1
5,17:6
5,18:6
5,19:6
5,41:1
5,57:14
5,58:14
5,59:14
5,68:14
6,1:16
6,2:16
6,3:16
6,4:16
6,5:16
6,6:1
6,7:1
6,9:16
6,10:1
6,11:1
6,15:16
6,16:1
6,17:21
6,18:21
6,19:21
6,20:11
6,21:12
6,22:11
6,24:12
6,30:12
6,41:16
6,57:29
6,58:29
6,59:29
6,68:29
6,69:8
6,70:8
7,1:16
7,2:16
7,3:16
7,4:16
7,5:16
7,6:1
7,7:1
7,9:16
7,10:1
7,11:1
7,15:16
7,16:1
7,17:21
7,18:21
7,19:21
7,20:11
7,21:12
7,22:11
7,24:12
7,30:12
7,41:16
7,57:29
7,58:29
7,59:29
7,68:29
7,69:8
7,70:8
8,8:1
8,17:1
8,18:1
8,19:1
8,57:9
8,58:9
8,59:9
8,68:9
9,1:1
9,2:1
9,3:1
9,4:1
9,5:1
9,8:6
9,9:1
9,15:1
9,17:6
9,18:6
9,19:6
9,41:1
9,57:14
9,58:14
9,59:14
9,68:14
10,1:16
10,2:16
10,3:16
10,4:16
10,5:16
10,6:1
10,7:1
10,8:21
10,9:16
10,10:1
10,15:16
10,16:1
10,17:21
10,18:21
10,19:21
10,20:11
10,21:12
10,22:11
10,24:12
10,30:12
10,41:16
10,57:29
10,58:29
10,59:29
10,68:29
10,69:8
10,70:8
11,1:16
11,2:16
11,3:16
11,4:16
11,5:16
11,6:1
11,7:1
11,8:21
11,9:16
11,10:1
11,11:1
11,15:16
11,16:1
11,17:21
11,18:21
11,19:21
11,20:11
11,21:12
11,22:11
11,24:12
11,30:12
11,41:16
11,57:29
11,58:29
11,59:29
11,68:29
11,69:8
11,70:8
12,8:1
12,12:1
12,17:1
12,18:1
12,19:1
12,57:9
12,58:9
12,59:9
12,68:9
13,1:6
13,2:6
13,3:6
13,4:6
13,5:6
13,8:11
13,9:6
13,12:11
13,13:1
13,14:1
13,15:6
13,17:11
13,18:11
13,19:11
13,20:1
13,21:2
13,22:1
13,24:2
13,30:2
13,41:6
13,57:19
13,58:19
13,59:19
13,68:19
14,1:6
14,2:6
14,3:6
14,4:6
14,5:6
14,8:11
14,9:6
14,12:11
14,13:1
14,14:1
14,15:6
14,17:11
14,18:11
14,19:11
14,20:1
14,21:2
14,22:1
14,24:2
14,30:2
14,41:6
14,57:19
14,58:19
14,59:19
14,68:19
15,1:1
15,2:1
15,3:1
15,4:1
15,5:1
15,8:6
15,9:1
15,12:6
15,15:1
15,41:1
15,68:14
16,1:16
16,2:16
16,3:16
16,4:16
16,5:16
16,6:1
16,7:1
16,8:21
16,9:16
16,10:1
16,11:1
16,12:21
16,13:11
16,14:11
16,15:16
16,16:1
16,24:12
16,30:12
16,41:16
16,68:29
16,69:8
16,70:8
17,8:1
17,12:1
17,17:1
17,18:1
17,68:9
18,8:1
18,12:1
18,17:1
18,18:1
18,68:9
19,8:1
19,12:1
19,17:1
19,18:1
19,19:1
19,68:9
20,1:6
20,2:6
20,3:6
20,4:6
20,5:6
20,8:11
20,9:6
20,12:11
20,13:1
20,14:1
20,15:6
20,17:11
20,18:11
20,19:11
20,20:1
20,22:1
20,24:2
20,30:2
20,41:6
20,57:19
20,58:19
20,59:19
20,68:19
21,1:5
21,2:5
21,3:5
21,4:5
21,5:5
21,8:10
21,9:5
21,12:10
21,15:5
21,17:10
21,18:10
21,19:10
21,21:1
21,24:1
21,30:1
21,41:5
21,57:18
21,58:18
21,59:18
21,68:18
22,1:6
22,2:6
22,3:6
22,4:6
22,5:6
22,8:11
22,9:6
22,12:11
22,13:1
22,14:1
22,15:6
22,17:11
22,18:11
22,19:11
22,20:1
22,21:2
22,22:1
22,24:2
22,30:2
22,41:6
22,57:19
22,58:19
22,59:19
22,68:19
23,1:5
23,2:5
23,3:5
23,4:5
23,5:5
23,8:10
23,9:5
23,12:10
23,15:5
23,17:10
23,18:10
23,19:10
23,21:1
23,23:1
23,24:1
23,30:1
23,41:5
23,57:18
23,58:18
23,59:18
23,68:18
24,1:5
24,2:5
24,3:5
24,4:5
24,5:5
24,8:10
24,9:5
24,12:10
24,15:5
24,17:10
24,18:10
24,19:10
24,21:1
24,23:1
24,24:1
24,30:1
24,31:1
24,32:13
24,33:13
24,34:13
24,41:5
24,57:18
24,58:18
24,59:18
24,68:18
25,1:5
25,2:5
25,3:5
25,4:5
25,5:5
25,8:10
25,9:5
25,12:10
25,15:5
25,17:10
25,18:10
25,19:10
25,21:1
25,23:1
25,24:1
25,25:1
25,30:1
25,31:1
25,32:13
25,33:13
25,34:13
25,41:5
25,57:18
25,58:18
25,59:18
25,68:18
26,26:1
26,27:1
26,28:1
26,32:1
26,33:1
26,34:1
26,57:6
26,58:6
26,59:6
26,68:6
27,26:1
27,27:1
27,28:1
27,32:1
27,33:1
27,34:1
27,57:6
27,58:6
27,59:6
27,68:6
28,26:1
28,27:1
28,28:1
28,32:1
28,33:1
28,34:1
28,57:6
28,58:6
28,59:6
28,68:6
29,1:5
29,2:5
29,3:5
29,4:5
29,5:5
29,8:10
29,9:5
29,12:10
29,15:5
29,17:10
29,18:10
29,19:10
29,21:1
29,23:1
29,24:1
29,25:1
29,26:13
29,27:13
29,28:13
29,29:1
29,30:1
29,31:1
29,32:13
29,33:13
29,34:13
29,41:5
29,57:18
29,58:18
29,59:18
29,68:18
30,1:5
30,2:5
30,3:5
30,4:5
30,5:5
30,8:10
30,9:5
30,12:10
30,15:5
30,17:10
30,18:10
30,19:10
30,21:1
30,23:1
30,24:1
30,25:1
30,26:13
30,27:13
30,28:13
30,29:1
30,30:1
30,33:13
30,34:13
30,41:5
30,57:18
30,58:18
30,59:18
30,68:18
31,1:5
31,2:5
31,3:5
31,4:5
31,5:5
31,8:10
31,9:5
31,12:10
31,15:5
31,17:10
31,18:10
31,19:10
31,21:1
31,23:1
31,24:1
31,25:1
31,26:13
31,27:13
31,28:13
31,29:1
31,30:1
31,31:1
31,33:13
31,34:13
31,41:5
31,57:18
31,58:18
31,59:18
31,68:18
32,26:1
32,27:1
32,28:1
32,32:1
32,33:1
32,34:1
32,57:6
32,58:6
32,59:6
32,68:6
33,26:1
33,27:1
33,28:1
33,32:1
33,33:1
33,57:6
33,58:6
33,59:6
33,68:6
34,26:1
34,27:1
34,28:1
34,32:1
34,33:1
34,34:1
34,57:6
34,58:6
34,59:6
34,68:6
35,1:1
35,2:1
35,3:1
35,4:1
35,5:1
35,8:6
35,9:1
35,12:6
35,15:1
35,17:6
35,18:6
35,19:6
35,26:9
35,27:9
35,28:9
35,32:9
35,33:9
35,34:9
35,35:1
35,41:1
35,57:14
35,58:14
35,59:14
35,68:14
36,36:1
36,46:1
36,56:1
36,57:1
36,58:1
36,59:1
36,64:1
36,68:1
37,36:1
37,37:1
37,46:1
37,56:1
37,57:1
37,58:1
37,59:1
37,64:1
37,68:1
38,36:1
38,37:1
38,38:1
38,46:1
38,56:1
38,57:1
38,58:1
38,59:1
38,64:1
38,68:1
39,36:1
39,37:1
39,38:1
39,39:1
39,46:1
39,56:1
39,57:1
39,58:1
39,59:1
39,64:1
39,68:1
40,36:1
40,37:1
40,38:1
40,39:1
40,40:1
40,46:1
40,56:1
40,57:1
40,58:1
40,59:1
40,64:1
40,68:1
41,1:1
41,2:1
41,3:1
41,4:1
41,5:1
41,8:6
41,9:1
41,12:6
41,15:1
41,17:6
41,18:6
41,19:6
41,26:9
41,27:9
41,28:9
41,32:9
41,33:9
41,34:9
41,35:1
41,36:14
41,37:14
41,38:14
41,39:14
41,40:14
41,41:1
41,44:1
41,45:1
41,46:14
41,47:6
41,49:6
41,51:1
41,53:1
41,54:6
41,55:6
41,56:14
41,57:14
41,58:14
41,59:14
41,62:1
41,63:1
41,64:14
41,68:14
42,1:9
42,2:9
42,3:9
42,4:9
42,5:9
42,8:14
42,9:9
42,12:14
42,13:4
42,14:4
42,15:9
42,17:14
42,18:14
42,19:14
42,20:4
42,21:5
42,22:4
42,23:5
42,24:5
42,25:5
42,26:17
42,27:17
42,28:17
42,29:5
42,30:5
42,31:5
42,32:17
42,33:17
42,34:17
42,35:9
42,36:22
42,37:22
42,38:22
42,39:22
42,40:22
42,41:9
42,42:1
42,44:9
42,45:9
42,46:22
42,47:14
42,48:1
42,49:14
42,51:9
42,52:1
42,53:9
42,54:14
42,55:14
42,56:22
42,57:22
42,58:22
42,59:22
42,60:1
42,61:1
42,62:9
42,63:9
42,64:22
42,65:1
42,66:1
42,67:1
42,68:22
42,69:1
42,70:1
43,1:9
43,2:9
43,3:9
43,4:9
43,5:9
43,8:14
43,9:9
43,12:14
43,13:4
43,14:4
43,15:9
43,17:14
43,18:14
43,19:14
43,20:4
43,21:5
43,22:4
43,23:5
43,24:5
43,25:5
43,26:17
43,27:17
43,28:17
43,29:5
43,30:5
43,31:5
43,32:17
43,33:17
43,34:17
43,35:9
43,36:22
43,37:22
43,38:22
43,39:22
43,40:22
43,41:9
43,42:1
43,43:1
43,44:9
43,45:9
43,46:22
43,47:14
43,48:1
43,49:14
43,51:9
43,52:1
43,53:9
43,54:14
43,55:14
43,56:22
43,57:22
43,58:22
43,59:22
43,60:1
43,61:1
43,62:9
43,63:9
43,64:22
43,65:1
43,66:1
43,67:1
43,68:22
43,69:1
43,70:1
44,1:1
44,2:1
44,3:1
44,4:1
44,5:1
44,8:6
44,9:1
44,12:6
44,15:1
44,17:6
44,18:6
44,19:6
44,26:9
44,27:9
44,28:9
44,32:9
44,33:9
44,34:9
44,35:1
44,36:14
44,37:14
44,38:14
44,39:14
44,40:14
44,41:1
44,44:1
44,49:6
44,51:1
44,53:1
44,54:6
44,55:6
44,56:14
44,57:14
44,58:14
44,59:14
44,62:1
44,63:1
44,64:14
44,68:14
45,1:1
45,2:1
45,3:1
45,4:1
45,5:1
45,8:6
45,9:1
45,12:6
45,15:1
45,17:6
45,18:6
45,19:6
45,26:9
45,27:9
45,28:9
45,32:9
45,33:9
45,34:9
45,35:1
45,36:14
45,37:14
45,38:14
45,39:14
45,40:14
45,41:1
45,44:1
45,45:1
45,49:6
45,51:1
45,53:1
45,54:6
45,55:6
45,56:14
45,57:14
45,58:14
45,59:14
45,62:1
45,63:1
45,64:14
45,68:14
46,36:1
46,37:1
46,38:1
46,39:1
46,40:1
46,46:1
46,56:1
46,57:1
46,58:1
46,59:1
46,64:1
46,68:1
47,8:1
47,12:1
47,17:1
47,18:1
47,19:1
47,26:4
47,27:4
47,28:4
47,32:4
47,33:4
47,34:4
47,36:9
47,37:9
47,38:9
47,39:9
47,40:9
47,46:9
47,47:1
47,49:1
47,54:1
47,55:1
47,56:9
47,57:9
47,58:9
47,59:9
47,64:9
47,68:9
48,1:9
48,2:9
48,3:9
48,4:9
48,5:9
48,8:14
48,9:9
48,12:14
48,13:4
48,14:4
48,15:9
48,17:14
48,18:14
48,19:14
48,20:4
48,21:5
48,22:4
48,23:5
48,24:5
48,25:5
48,26:17
48,27:17
48,28:17
48,29:5
48,30:5
48,31:5
48,32:17
48,33:17
48,34:17
48,35:9
48,36:22
48,37:22
48,38:22
48,39:22
48,40:22
48,41:9
48,42:1
48,43:1
48,44:9
48,45:9
48,46:22
48,47:14
48,48:1
48,51:9
48,52:1
48,53:9
48,54:14
48,55:14
48,56:22
48,57:22
48,58:22
48,59:22
48,60:1
48,61:1
48,62:9
48,63:9
48,64:22
48,65:1
48,66:1
48,67:1
48,68:22
48,69:1
48,70:1
49,8:1
49,12:1
49,17:1
49,18:1
49,19:1
49,26:4
49,27:4
49,28:4
49,32:4
49,33:4
49,34:4
49,36:9
49,37:9
49,38:9
49,39:9
49,40:9
49,46:9
49,47:1
49,49:1
49,54:1
49,55:1
49,56:9
49,57:9
49,58:9
49,59:9
49,64:9
49,68:9
50,8:1
50,12:1
50,17:1
50,18:1
50,19:1
50,26:4
50,27:4
50,28:4
50,32:4
50,33:4
50,34:4
50,36:9
50,37:9
50,38:9
50,39:9
50,40:9
50,46:9
50,47:1
50,49:1
50,50:1
50,54:1
50,55:1
50,56:9
50,57:9
50,58:9
50,59:9
50,64:9
50,68:9
51,1:1
51,2:1
51,3:1
51,4:1
51,5:1
51,8:6
51,9:1
51,12:6
51,15:1
51,17:6
51,18:6
51,19:6
51,26:9
51,27:9
51,28:9
51,32:9
51,33:9
51,34:9
51,35:1
51,36:14
51,37:14
51,38:14
51,39:14
51,40:14
51,41:1
51,44:1
51,45:1
51,46:14
51,47:6
51,49:6
51,50:6
51,51:1
51,53:1
51,56:14
51,57:14
51,58:14
51,59:14
51,62:1
51,63:1
51,64:14
51,68:14
52,1:9
52,2:9
52,3:9
52,4:9
52,5:9
52,8:14
52,9:9
52,12:14
52,13:4
52,14:4
52,15:9
52,17:14
52,18:14
52,19:14
52,20:4
52,21:5
52,22:4
52,23:5
52,24:5
52,25:5
52,26:17
52,27:17
52,28:17
52,29:5
52,30:5
52,31:5
52,32:17
52,33:17
52,34:17
52,35:9
52,36:22
52,37:22
52,38:22
52,39:22
52,40:22
52,41:9
52,42:1
52,43:1
52,44:9
52,45:9
52,46:22
52,47:14
52,48:1
52,49:14
52,50:14
52,51:9
52,52:1
52,53:9
52,56:22
52,57:22
52,58:22
52,59:22
52,60:1
52,61:1
52,62:9
52,63:9
52,64:22
52,65:1
52,66:1
52,67:1
52,68:22
52,69:1
52,70:1
53,1:1
53,2:1
53,3:1
53,4:1
53,5:1
53,8:6
53,9:1
53,12:6
53,15:1
53,17:6
53,18:6
53,19:6
53,26:9
53,27:9
53,28:9
53,32:9
53,33:9
53,34:9
53,35:1
53,36:14
53,37:14
53,38:14
53,39:14
53,40:14
53,41:1
53,44:1
53,45:1
53,46:14
53,47:6
53,49:6
53,50:6
53,51:1
53,53:1
53,56:14
53,57:14
53,58:14
53,59:14
53,62:1
53,63:1
53,64:14
53,68:14
54,8:1
54,12:1
54,17:1
54,18:1
54,19:1
54,26:4
54,27:4
54,28:4
54,32:4
54,33:4
54,34:4
54,36:9
54,37:9
54,38:9
54,39:9
54,40:9
54,46:9
54,47:1
54,49:1
54,50:1
54,54:1
54,56:9
54,57:9
54,58:9
54,59:9
54,64:9
54,68:9
55,8:1
55,12:1
55,17:1
55,18:1
55,19:1
55,26:4
55,27:4
55,28:4
55,32:4
55,33:4
55,34:4
55,36:9
55,37:9
55,38:9
55,39:9
55,40:9
55,46:9
55,47:1
55,49:1
55,50:1
55,54:1
55,55:1
55,56:9
55,57:9
55,58:9
55,59:9
55,64:9
55,68:9
56,36:1
56,37:1
56,38:1
56,39:1
56,40:1
56,46:1
56,56:1
56,57:1
56,58:1
56,59:1
56,64:1
56,68:1
57,36:1
57,37:1
57,38:1
57,39:1
57,40:1
57,46:1
57,56:1
57,57:1
57,64:1
57,68:1
58,36:1
58,37:1
58,38:1
58,39:1
58,40:1
58,46:1
58,56:1
58,57:1
58,58:1
58,64:1
58,68:1
59,36:1
59,37:1
59,38:1
59,39:1
59,40:1
59,46:1
59,56:1
59,57:1
59,58:1
59,59:1
59,64:1
59,68:1
60,1:9
60,2:9
60,3:9
60,4:9
60,5:9
60,8:14
60,9:9
60,12:14
60,13:4
60,14:4
60,15:9
60,17:14
60,18:14
60,19:14
60,20:4
60,21:5
60,22:4
60,23:5
60,24:5
60,25:5
60,26:17
60,27:17
60,28:17
60,29:5
60,30:5
60,31:5
60,32:17
60,33:17
60,34:17
60,35:9
60,36:22
60,37:22
60,38:22
60,39:22
60,40:22
60,41:9
60,42:1
60,43:1
60,44:9
60,45:9
60,46:22
60,47:14
60,48:1
60,49:14
60,50:14
60,51:9
60,52:1
60,53:9
60,54:14
60,55:14
60,56:22
60,57:22
60,58:22
60,59:22
60,60:1
60,61:1
60,62:9
60,63:9
60,64:22
60,65:1
60,66:1
60,67:1
60,68:22
60,69:1
60,70:1
61,1:9
61,2:9
61,3:9
61,4:9
61,5:9
61,8:14
61,9:9
61,12:14
61,13:4
61,14:4
61,15:9
61,17:14
61,18:14
61,19:14
61,20:4
61,21:5
61,22:4
61,23:5
61,24:5
61,25:5
61,26:17
61,27:17
61,28:17
61,29:5
61,30:5
61,31:5
61,32:17
61,33:17
61,34:17
61,35:9
61,36:22
61,37:22
61,38:22
61,39:22
61,40:22
61,41:9
61,42:1
61,43:1
61,44:9
61,45:9
61,46:22
61,47:14
61,48:1
61,49:14
61,50:14
61,51:9
61,52:1
61,53:9
61,54:14
61,55:14
61,56:22
61,57:22
61,58:22
61,59:22
61,60:1
61,61:1
61,62:9
61,63:9
61,64:22
61,66:1
61,67:1
61,68:22
61,69:1
61,70:1
62,1:1
62,2:1
62,3:1
62,4:1
62,5:1
62,8:6
62,9:1
62,12:6
62,15:1
62,17:6
62,18:6
62,19:6
62,26:9
62,27:9
62,28:9
62,32:9
62,33:9
62,34:9
62,35:1
62,36:14
62,37:14
62,38:14
62,39:14
62,40:14
62,41:1
62,44:1
62,45:1
62,46:14
62,47:6
62,49:6
62,50:6
62,51:1
62,53:1
62,54:6
62,55:6
62,56:14
62,57:14
62,58:14
62,59:14
62,62:1
62,68:14
63,1:1
63,2:1
63,3:1
63,4:1
63,5:1
63,8:6
63,9:1
63,12:6
63,15:1
63,17:6
63,18:6
63,19:6
63,26:9
63,27:9
63,28:9
63,32:9
63,33:9
63,34:9
63,35:1
63,36:14
63,37:14
63,38:14
63,39:14
63,40:14
63,41:1
63,44:1
63,45:1
63,46:14
63,47:6
63,49:6
63,50:6
63,51:1
63,53:1
63,54:6
63,55:6
63,56:14
63,57:14
63,58:14
63,59:14
63,62:1
63,63:1
63,68:14
64,36:1
64,37:1
64,38:1
64,39:1
64,40:1
64,46:1
64,56:1
64,57:1
64,58:1
64,59:1
64,64:1
64,68:1
65,1:9
65,2:9
65,3:9
65,4:9
65,5:9
65,8:14
65,9:9
65,12:14
65,13:4
65,14:4
65,15:9
65,17:14
65,18:14
65,19:14
65,20:4
65,21:5
65,22:4
65,23:5
65,24:5
65,25:5
65,26:17
65,27:17
65,28:17
65,29:5
65,30:5
65,31:5
65,32:17
65,33:17
65,34:17
65,35:9
65,36:22
65,37:22
65,38:22
65,39:22
65,40:22
65,41:9
65,42:1
65,43:1
65,44:9
65,45:9
65,46:22
65,47:14
65,48:1
65,49:14
65,50:14
65,51:9
65,52:1
65,53:9
65,54:14
65,55:14
65,56:22
65,57:22
65,58:22
65,59:22
65,60:1
65,61:1
65,62:9
65,63:9
65,64:22
65,65:1
65,66:1
65,67:1
65,68:22
65,69:1
65,70:1
66,1:9
66,2:9
66,3:9
66,4:9
66,5:9
66,8:14
66,9:9
66,12:14
66,13:4
66,14:4
66,15:9
66,17:14
66,18:14
66,19:14
66,20:4
66,21:5
66,22:4
66,23:5
66,24:5
66,25:5
66,26:17
66,27:17
66,28:17
66,29:5
66,30:5
66,31:5
66,32:17
66,33:17
66,34:17
66,35:9
66,36:22
66,37:22
66,38:22
66,39:22
66,40:22
66,41:9
66,42:1
66,43:1
66,44:9
66,45:9
66,46:22
66,47:14
66,48:1
66,49:14
66,50:14
66,51:9
66,52:1
66,53:9
66,54:14
66,55:14
66,56:22
66,57:22
66,58:22
66,59:22
66,60:1
66,61:1
66,62:9
66,63:9
66,64:22
66,65:1
66,66:1
66,67:1
66,68:22
66,69:1
66,70:1
67,1:9
67,2:9
67,3:9
67,4:9
67,5:9
67,8:14
67,9:9
67,12:14
67,13:4
67,14:4
67,15:9
67,17:14
67,18:14
67,19:14
67,20:4
67,21:5
67,22:4
67,23:5
67,24:5
67,25:5
67,26:17
67,27:17
67,28:17
67,29:5
67,30:5
67,31:5
67,32:17
67,33:17
67,34:17
67,35:9
67,36:22
67,37:22
67,38:22
67,39:22
67,40:22
67,41:9
67,42:1
67,43:1
67,44:9
67,45:9
67,46:22
67,47:14
67,48:1
67,49:14
67,50:14
67,51:9
67,52:1
67,53:9
67,54:14
67,55:14
67,56:22
67,57:22
67,58:22
67,59:22
67,60:1
67,61:1
67,62:9
67,63:9
67,64:22
67,65:1
67,66:1
67,67:1
67,68:22
67,69:1
67,70:1
68,36:1
68,37:1
68,38:1
68,39:1
68,40:1
68,46:1
68,56:1
68,57:1
68,58:1
68,59:1
68,64:1
68,68:1
69,1:9
69,2:9
69,3:9
69,4:9
69,5:9
69,8:14
69,9:9
69,12:14
69,13:4
69,14:4
69,15:9
69,17:14
69,18:14
69,19:14
69,20:4
69,21:5
69,22:4
69,23:5
69,24:5
69,25:5
69,26:17
69,27:17
69,28:17
69,29:5
69,30:5
69,31:5
69,32:17
69,33:17
69,34:17
69,35:9
69,36:22
69,37:22
69,38:22
69,39:22
69,40:22
69,41:9
69,42:1
69,43:1
69,44:9
69,45:9
69,46:22
69,47:14
69,48:1
69,49:14
69,50:14
69,51:9
69,52:1
69,53:9
69,54:14
69,55:14
69,56:22
69,57:22
69,58:22
69,59:22
69,60:1
69,61:1
69,62:9
69,63:9
69,64:22
69,65:1
69,66:1
69,67:1
69,68:22
69,69:1
69,70:1
70,1:9
70,2:9
70,3:9
70,4:9
70,5:9
70,8:14
70,9:9
70,12:14
70,13:4
70,14:4
70,15:9
70,17:14
70,18:14
70,19:14
70,20:4
70,21:5
70,22:4
70,23:5
70,24:5
70,25:5
70,26:17
70,27:17
70,28:17
70,29:5
70,30:5
70,31:5
70,32:17
70,33:17
70,34:17
70,35:9
70,36:22
70,37:22
70,38:22
70,39:22
70,40:22
70,41:9
70,42:1
70,43:1
70,44:9
70,45:9
70,46:22
70,47:14
70,48:1
70,49:14
70,50:14
70,51:9
70,52:1
70,53:9
70,54:14
70,55:14
70,56:22
70,57:22
70,58:22
70,59:22
70,60:1
70,61:1
70,62:9
70,63:9
70,64:22
70,65:1
70,66:1
70,67:1
70,68:22
70,69:1
70,70:1

<end>

<optimal SALBP-1 value>
10


<rand seed>
467321153

<Lower Bounds>
Lm1=10
Lms1=10
Lm2=0
Lm3=3
Lm4=10
Best=10

<Optimal Stations (Iterations: 10)>
12
